21
 1 168 8
 2 22 1
 3 138 6
 4 96 4
 5 250 10
 6 312 12
 7 54 2
 8 392 14
 9 145 5
 10 150 5
 11 527 17
 12 448 14
 13 330 10
 14 476 14
 15 35 1
 16 216 6
 17 481 13
 18 152 4
 19 312 8
 20 560 14
 21 82 2
84